p cnf 582 1701
c inputs: 1 2 3 4 5 6 7 8 9 10 11 12 13 14 15
c variables for gates: 16 ... 567
c outputs: 568 569 570 571 572 573 574 575 576 577 578 579 580 581 582
c random input: -1 2 -3 -4 5 6 -7 -8 9 10 -11 12 13 14 15
16 -1 -8 0
-16 1 0
-16 8 0
17 -1 -9 0
-17 1 0
-17 9 0
18 -1 -10 0
-18 1 0
-18 10 0
19 -1 -11 0
-19 1 0
-19 11 0
20 -1 -12 0
-20 1 0
-20 12 0
21 -1 -13 0
-21 1 0
-21 13 0
22 -1 -14 0
-22 1 0
-22 14 0
23 -1 -15 0
-23 1 0
-23 15 0
24 -2 -8 0
-24 2 0
-24 8 0
25 -2 -9 0
-25 2 0
-25 9 0
26 -2 -10 0
-26 2 0
-26 10 0
27 -2 -11 0
-27 2 0
-27 11 0
28 -2 -12 0
-28 2 0
-28 12 0
29 -2 -13 0
-29 2 0
-29 13 0
30 -2 -14 0
-30 2 0
-30 14 0
31 -2 -15 0
-31 2 0
-31 15 0
32 -3 -8 0
-32 3 0
-32 8 0
33 -3 -9 0
-33 3 0
-33 9 0
34 -3 -10 0
-34 3 0
-34 10 0
35 -3 -11 0
-35 3 0
-35 11 0
36 -3 -12 0
-36 3 0
-36 12 0
37 -3 -13 0
-37 3 0
-37 13 0
38 -3 -14 0
-38 3 0
-38 14 0
39 -3 -15 0
-39 3 0
-39 15 0
40 -4 -8 0
-40 4 0
-40 8 0
41 -4 -9 0
-41 4 0
-41 9 0
42 -4 -10 0
-42 4 0
-42 10 0
43 -4 -11 0
-43 4 0
-43 11 0
44 -4 -12 0
-44 4 0
-44 12 0
45 -4 -13 0
-45 4 0
-45 13 0
46 -4 -14 0
-46 4 0
-46 14 0
47 -4 -15 0
-47 4 0
-47 15 0
48 -5 -8 0
-48 5 0
-48 8 0
49 -5 -9 0
-49 5 0
-49 9 0
50 -5 -10 0
-50 5 0
-50 10 0
51 -5 -11 0
-51 5 0
-51 11 0
52 -5 -12 0
-52 5 0
-52 12 0
53 -5 -13 0
-53 5 0
-53 13 0
54 -5 -14 0
-54 5 0
-54 14 0
55 -5 -15 0
-55 5 0
-55 15 0
56 -6 -8 0
-56 6 0
-56 8 0
57 -6 -9 0
-57 6 0
-57 9 0
58 -6 -10 0
-58 6 0
-58 10 0
59 -6 -11 0
-59 6 0
-59 11 0
60 -6 -12 0
-60 6 0
-60 12 0
61 -6 -13 0
-61 6 0
-61 13 0
62 -6 -14 0
-62 6 0
-62 14 0
63 -6 -15 0
-63 6 0
-63 15 0
64 -7 -8 0
-64 7 0
-64 8 0
65 -7 -9 0
-65 7 0
-65 9 0
66 -7 -10 0
-66 7 0
-66 10 0
67 -7 -11 0
-67 7 0
-67 11 0
68 -7 -12 0
-68 7 0
-68 12 0
69 -7 -13 0
-69 7 0
-69 13 0
70 -7 -14 0
-70 7 0
-70 14 0
71 -7 -15 0
-71 7 0
-71 15 0
72 -24 -17 0
-72 24 0
-72 17 0
73 -17 24 0
-73 17 0
-73 -24 0
74 -24 17 0
-74 24 0
-74 -17 0
75 73 74 0
-75 -73 0
-75 -74 0
76 -25 -18 0
-76 25 0
-76 18 0
77 -32 -18 0
-77 32 0
-77 18 0
78 -25 -32 0
-78 25 0
-78 32 0
79 77 78 0
-79 -77 0
-79 -78 0
80 76 -79 0
-80 -76 0
-80 79 0
81 -25 32 0
-81 25 0
-81 -32 0
82 -32 25 0
-82 32 0
-82 -25 0
83 82 81 0
-83 -82 0
-83 -81 0
84 -18 -83 0
-84 18 0
-84 83 0
85 18 83 0
-85 -18 0
-85 -83 0
86 84 85 0
-86 -84 0
-86 -85 0
87 -26 -19 0
-87 26 0
-87 19 0
88 -33 -19 0
-88 33 0
-88 19 0
89 -26 -33 0
-89 26 0
-89 33 0
90 88 89 0
-90 -88 0
-90 -89 0
91 87 -90 0
-91 -87 0
-91 90 0
92 -26 33 0
-92 26 0
-92 -33 0
93 -33 26 0
-93 33 0
-93 -26 0
94 93 92 0
-94 -93 0
-94 -92 0
95 -19 -94 0
-95 19 0
-95 94 0
96 19 94 0
-96 -19 0
-96 -94 0
97 95 96 0
-97 -95 0
-97 -96 0
98 -27 -20 0
-98 27 0
-98 20 0
99 -34 -20 0
-99 34 0
-99 20 0
100 -27 -34 0
-100 27 0
-100 34 0
101 99 100 0
-101 -99 0
-101 -100 0
102 98 -101 0
-102 -98 0
-102 101 0
103 -27 34 0
-103 27 0
-103 -34 0
104 -34 27 0
-104 34 0
-104 -27 0
105 104 103 0
-105 -104 0
-105 -103 0
106 -20 -105 0
-106 20 0
-106 105 0
107 20 105 0
-107 -20 0
-107 -105 0
108 106 107 0
-108 -106 0
-108 -107 0
109 -28 -21 0
-109 28 0
-109 21 0
110 -35 -21 0
-110 35 0
-110 21 0
111 -28 -35 0
-111 28 0
-111 35 0
112 110 111 0
-112 -110 0
-112 -111 0
113 109 -112 0
-113 -109 0
-113 112 0
114 -28 35 0
-114 28 0
-114 -35 0
115 -35 28 0
-115 35 0
-115 -28 0
116 115 114 0
-116 -115 0
-116 -114 0
117 -21 -116 0
-117 21 0
-117 116 0
118 21 116 0
-118 -21 0
-118 -116 0
119 117 118 0
-119 -117 0
-119 -118 0
120 -29 -22 0
-120 29 0
-120 22 0
121 -36 -22 0
-121 36 0
-121 22 0
122 -29 -36 0
-122 29 0
-122 36 0
123 121 122 0
-123 -121 0
-123 -122 0
124 120 -123 0
-124 -120 0
-124 123 0
125 -29 36 0
-125 29 0
-125 -36 0
126 -36 29 0
-126 36 0
-126 -29 0
127 126 125 0
-127 -126 0
-127 -125 0
128 -22 -127 0
-128 22 0
-128 127 0
129 22 127 0
-129 -22 0
-129 -127 0
130 128 129 0
-130 -128 0
-130 -129 0
131 -30 -23 0
-131 30 0
-131 23 0
132 -37 -23 0
-132 37 0
-132 23 0
133 -30 -37 0
-133 30 0
-133 37 0
134 132 133 0
-134 -132 0
-134 -133 0
135 131 -134 0
-135 -131 0
-135 134 0
136 -30 37 0
-136 30 0
-136 -37 0
137 -37 30 0
-137 37 0
-137 -30 0
138 137 136 0
-138 -137 0
-138 -136 0
139 -23 -138 0
-139 23 0
-139 138 0
140 23 138 0
-140 -23 0
-140 -138 0
141 139 140 0
-141 -139 0
-141 -140 0
142 -31 -38 0
-142 31 0
-142 38 0
143 -31 38 0
-143 31 0
-143 -38 0
144 -38 31 0
-144 38 0
-144 -31 0
145 144 143 0
-145 -144 0
-145 -143 0
146 -41 -48 0
-146 41 0
-146 48 0
147 -41 48 0
-147 41 0
-147 -48 0
148 -48 41 0
-148 48 0
-148 -41 0
149 148 147 0
-149 -148 0
-149 -147 0
150 -42 -49 0
-150 42 0
-150 49 0
151 -56 -42 0
-151 56 0
-151 42 0
152 -56 -49 0
-152 56 0
-152 49 0
153 152 151 0
-153 -152 0
-153 -151 0
154 150 -153 0
-154 -150 0
-154 153 0
155 -49 56 0
-155 49 0
-155 -56 0
156 -56 49 0
-156 56 0
-156 -49 0
157 156 155 0
-157 -156 0
-157 -155 0
158 -42 -157 0
-158 42 0
-158 157 0
159 42 157 0
-159 -42 0
-159 -157 0
160 158 159 0
-160 -158 0
-160 -159 0
161 -43 -50 0
-161 43 0
-161 50 0
162 -57 -43 0
-162 57 0
-162 43 0
163 -57 -50 0
-163 57 0
-163 50 0
164 162 163 0
-164 -162 0
-164 -163 0
165 161 -164 0
-165 -161 0
-165 164 0
166 -50 57 0
-166 50 0
-166 -57 0
167 -57 50 0
-167 57 0
-167 -50 0
168 167 166 0
-168 -167 0
-168 -166 0
169 -43 -168 0
-169 43 0
-169 168 0
170 43 168 0
-170 -43 0
-170 -168 0
171 169 170 0
-171 -169 0
-171 -170 0
172 -44 -51 0
-172 44 0
-172 51 0
173 -58 -44 0
-173 58 0
-173 44 0
174 -58 -51 0
-174 58 0
-174 51 0
175 174 173 0
-175 -174 0
-175 -173 0
176 172 -175 0
-176 -172 0
-176 175 0
177 -51 58 0
-177 51 0
-177 -58 0
178 -58 51 0
-178 58 0
-178 -51 0
179 178 177 0
-179 -178 0
-179 -177 0
180 -44 -179 0
-180 44 0
-180 179 0
181 44 179 0
-181 -44 0
-181 -179 0
182 180 181 0
-182 -180 0
-182 -181 0
183 -45 -52 0
-183 45 0
-183 52 0
184 -59 -45 0
-184 59 0
-184 45 0
185 -59 -52 0
-185 59 0
-185 52 0
186 185 184 0
-186 -185 0
-186 -184 0
187 183 -186 0
-187 -183 0
-187 186 0
188 -52 59 0
-188 52 0
-188 -59 0
189 -59 52 0
-189 59 0
-189 -52 0
190 189 188 0
-190 -189 0
-190 -188 0
191 -45 -190 0
-191 45 0
-191 190 0
192 45 190 0
-192 -45 0
-192 -190 0
193 191 192 0
-193 -191 0
-193 -192 0
194 -46 -53 0
-194 46 0
-194 53 0
195 -60 -46 0
-195 60 0
-195 46 0
196 -60 -53 0
-196 60 0
-196 53 0
197 195 196 0
-197 -195 0
-197 -196 0
198 194 -197 0
-198 -194 0
-198 197 0
199 -53 60 0
-199 53 0
-199 -60 0
200 -60 53 0
-200 60 0
-200 -53 0
201 200 199 0
-201 -200 0
-201 -199 0
202 -46 -201 0
-202 46 0
-202 201 0
203 46 201 0
-203 -46 0
-203 -201 0
204 202 203 0
-204 -202 0
-204 -203 0
205 -47 -54 0
-205 47 0
-205 54 0
206 -61 -47 0
-206 61 0
-206 47 0
207 -61 -54 0
-207 61 0
-207 54 0
208 206 207 0
-208 -206 0
-208 -207 0
209 205 -208 0
-209 -205 0
-209 208 0
210 -54 61 0
-210 54 0
-210 -61 0
211 -61 54 0
-211 61 0
-211 -54 0
212 211 210 0
-212 -211 0
-212 -210 0
213 -47 -212 0
-213 47 0
-213 212 0
214 47 212 0
-214 -47 0
-214 -212 0
215 213 214 0
-215 -213 0
-215 -214 0
216 -62 -55 0
-216 62 0
-216 55 0
217 -55 62 0
-217 55 0
-217 -62 0
218 -62 55 0
-218 62 0
-218 -55 0
219 218 217 0
-219 -218 0
-219 -217 0
220 -72 86 0
-220 72 0
-220 -86 0
221 72 86 0
-221 -72 0
-221 -86 0
222 -72 -86 0
-222 72 0
-222 86 0
223 222 221 0
-223 -222 0
-223 -221 0
224 80 97 0
-224 -80 0
-224 -97 0
225 -40 97 0
-225 40 0
-225 -97 0
226 -40 80 0
-226 40 0
-226 -80 0
227 226 225 0
-227 -226 0
-227 -225 0
228 -227 224 0
-228 227 0
-228 -224 0
229 40 80 0
-229 -40 0
-229 -80 0
230 -40 -80 0
-230 40 0
-230 80 0
231 230 229 0
-231 -230 0
-231 -229 0
232 97 -231 0
-232 -97 0
-232 231 0
233 -97 231 0
-233 97 0
-233 -231 0
234 233 232 0
-234 -233 0
-234 -232 0
235 91 108 0
-235 -91 0
-235 -108 0
236 149 108 0
-236 -149 0
-236 -108 0
237 149 91 0
-237 -149 0
-237 -91 0
238 237 236 0
-238 -237 0
-238 -236 0
239 235 -238 0
-239 -235 0
-239 238 0
240 -149 91 0
-240 149 0
-240 -91 0
241 149 -91 0
-241 -149 0
-241 91 0
242 240 241 0
-242 -240 0
-242 -241 0
243 108 -242 0
-243 -108 0
-243 242 0
244 -108 242 0
-244 108 0
-244 -242 0
245 244 243 0
-245 -244 0
-245 -243 0
246 102 119 0
-246 -102 0
-246 -119 0
247 160 119 0
-247 -160 0
-247 -119 0
248 102 160 0
-248 -102 0
-248 -160 0
249 248 247 0
-249 -248 0
-249 -247 0
250 246 -249 0
-250 -246 0
-250 249 0
251 102 -160 0
-251 -102 0
-251 160 0
252 -102 160 0
-252 102 0
-252 -160 0
253 251 252 0
-253 -251 0
-253 -252 0
254 119 -253 0
-254 -119 0
-254 253 0
255 -119 253 0
-255 119 0
-255 -253 0
256 255 254 0
-256 -255 0
-256 -254 0
257 113 130 0
-257 -113 0
-257 -130 0
258 171 130 0
-258 -171 0
-258 -130 0
259 113 171 0
-259 -113 0
-259 -171 0
260 259 258 0
-260 -259 0
-260 -258 0
261 257 -260 0
-261 -257 0
-261 260 0
262 113 -171 0
-262 -113 0
-262 171 0
263 -113 171 0
-263 113 0
-263 -171 0
264 262 263 0
-264 -262 0
-264 -263 0
265 130 -264 0
-265 -130 0
-265 264 0
266 -130 264 0
-266 130 0
-266 -264 0
267 266 265 0
-267 -266 0
-267 -265 0
268 124 141 0
-268 -124 0
-268 -141 0
269 182 141 0
-269 -182 0
-269 -141 0
270 124 182 0
-270 -124 0
-270 -182 0
271 270 269 0
-271 -270 0
-271 -269 0
272 268 -271 0
-272 -268 0
-272 271 0
273 124 -182 0
-273 -124 0
-273 182 0
274 -124 182 0
-274 124 0
-274 -182 0
275 273 274 0
-275 -273 0
-275 -274 0
276 141 -275 0
-276 -141 0
-276 275 0
277 -141 275 0
-277 141 0
-277 -275 0
278 277 276 0
-278 -277 0
-278 -276 0
279 145 135 0
-279 -145 0
-279 -135 0
280 145 193 0
-280 -145 0
-280 -193 0
281 135 193 0
-281 -135 0
-281 -193 0
282 280 281 0
-282 -280 0
-282 -281 0
283 279 -282 0
-283 -279 0
-283 282 0
284 135 -193 0
-284 -135 0
-284 193 0
285 -135 193 0
-285 135 0
-285 -193 0
286 284 285 0
-286 -284 0
-286 -285 0
287 145 -286 0
-287 -145 0
-287 286 0
288 -145 286 0
-288 145 0
-288 -286 0
289 288 287 0
-289 -288 0
-289 -287 0
290 -39 -142 0
-290 39 0
-290 142 0
291 -39 204 0
-291 39 0
-291 -204 0
292 -142 204 0
-292 142 0
-292 -204 0
293 291 292 0
-293 -291 0
-293 -292 0
294 290 -293 0
-294 -290 0
-294 293 0
295 -142 -204 0
-295 142 0
-295 204 0
296 142 204 0
-296 -142 0
-296 -204 0
297 295 296 0
-297 -295 0
-297 -296 0
298 -39 -297 0
-298 39 0
-298 297 0
299 39 297 0
-299 -39 0
-299 -297 0
300 299 298 0
-300 -299 0
-300 -298 0
301 -220 234 0
-301 220 0
-301 -234 0
302 220 234 0
-302 -220 0
-302 -234 0
303 -220 -234 0
-303 220 0
-303 234 0
304 303 302 0
-304 -303 0
-304 -302 0
305 228 245 0
-305 -228 0
-305 -245 0
306 -228 245 0
-306 228 0
-306 -245 0
307 228 -245 0
-307 -228 0
-307 245 0
308 307 306 0
-308 -307 0
-308 -306 0
309 239 256 0
-309 -239 0
-309 -256 0
310 -239 256 0
-310 239 0
-310 -256 0
311 239 -256 0
-311 -239 0
-311 256 0
312 311 310 0
-312 -311 0
-312 -310 0
313 267 250 0
-313 -267 0
-313 -250 0
314 -64 267 0
-314 64 0
-314 -267 0
315 -64 250 0
-315 64 0
-315 -250 0
316 314 315 0
-316 -314 0
-316 -315 0
317 313 -316 0
-317 -313 0
-317 316 0
318 64 250 0
-318 -64 0
-318 -250 0
319 -64 -250 0
-319 64 0
-319 250 0
320 319 318 0
-320 -319 0
-320 -318 0
321 -320 267 0
-321 320 0
-321 -267 0
322 320 -267 0
-322 -320 0
-322 267 0
323 322 321 0
-323 -322 0
-323 -321 0
324 278 261 0
-324 -278 0
-324 -261 0
325 -65 278 0
-325 65 0
-325 -278 0
326 -65 261 0
-326 65 0
-326 -261 0
327 325 326 0
-327 -325 0
-327 -326 0
328 -327 324 0
-328 327 0
-328 -324 0
329 65 261 0
-329 -65 0
-329 -261 0
330 -65 -261 0
-330 65 0
-330 261 0
331 329 330 0
-331 -329 0
-331 -330 0
332 -331 278 0
-332 331 0
-332 -278 0
333 331 -278 0
-333 -331 0
-333 278 0
334 333 332 0
-334 -333 0
-334 -332 0
335 289 272 0
-335 -289 0
-335 -272 0
336 -66 289 0
-336 66 0
-336 -289 0
337 -66 272 0
-337 66 0
-337 -272 0
338 336 337 0
-338 -336 0
-338 -337 0
339 335 -338 0
-339 -335 0
-339 338 0
340 66 272 0
-340 -66 0
-340 -272 0
341 -66 -272 0
-341 66 0
-341 272 0
342 340 341 0
-342 -340 0
-342 -341 0
343 289 -342 0
-343 -289 0
-343 342 0
344 -289 342 0
-344 289 0
-344 -342 0
345 343 344 0
-345 -343 0
-345 -344 0
346 300 283 0
-346 -300 0
-346 -283 0
347 -67 300 0
-347 67 0
-347 -300 0
348 -67 283 0
-348 67 0
-348 -283 0
349 347 348 0
-349 -347 0
-349 -348 0
350 346 -349 0
-350 -346 0
-350 349 0
351 67 283 0
-351 -67 0
-351 -283 0
352 -67 -283 0
-352 67 0
-352 283 0
353 352 351 0
-353 -352 0
-353 -351 0
354 -353 300 0
-354 353 0
-354 -300 0
355 353 -300 0
-355 -353 0
-355 300 0
356 355 354 0
-356 -355 0
-356 -354 0
357 215 294 0
-357 -215 0
-357 -294 0
358 -68 215 0
-358 68 0
-358 -215 0
359 -68 294 0
-359 68 0
-359 -294 0
360 358 359 0
-360 -358 0
-360 -359 0
361 357 -360 0
-361 -357 0
-361 360 0
362 68 294 0
-362 -68 0
-362 -294 0
363 -68 -294 0
-363 68 0
-363 294 0
364 363 362 0
-364 -363 0
-364 -362 0
365 215 -364 0
-365 -215 0
-365 364 0
366 -215 364 0
-366 215 0
-366 -364 0
367 366 365 0
-367 -366 0
-367 -365 0
368 -69 219 0
-368 69 0
-368 -219 0
369 69 219 0
-369 -69 0
-369 -219 0
370 -69 -219 0
-370 69 0
-370 219 0
371 370 369 0
-371 -370 0
-371 -369 0
372 -63 -70 0
-372 63 0
-372 70 0
373 -63 70 0
-373 63 0
-373 -70 0
374 -70 63 0
-374 70 0
-374 -63 0
375 373 374 0
-375 -373 0
-375 -374 0
376 308 -301 0
-376 -308 0
-376 301 0
377 308 301 0
-377 -308 0
-377 -301 0
378 -308 -301 0
-378 308 0
-378 301 0
379 378 377 0
-379 -378 0
-379 -377 0
380 -305 312 0
-380 305 0
-380 -312 0
381 -146 312 0
-381 146 0
-381 -312 0
382 -146 -305 0
-382 146 0
-382 305 0
383 382 381 0
-383 -382 0
-383 -381 0
384 380 -383 0
-384 -380 0
-384 383 0
385 146 -305 0
-385 -146 0
-385 305 0
386 -146 305 0
-386 146 0
-386 -305 0
387 385 386 0
-387 -385 0
-387 -386 0
388 312 -387 0
-388 -312 0
-388 387 0
389 -312 387 0
-389 312 0
-389 -387 0
390 388 389 0
-390 -388 0
-390 -389 0
391 -309 323 0
-391 309 0
-391 -323 0
392 154 323 0
-392 -154 0
-392 -323 0
393 154 -309 0
-393 -154 0
-393 309 0
394 393 392 0
-394 -393 0
-394 -392 0
395 391 -394 0
-395 -391 0
-395 394 0
396 -154 -309 0
-396 154 0
-396 309 0
397 154 309 0
-397 -154 0
-397 -309 0
398 396 397 0
-398 -396 0
-398 -397 0
399 -398 323 0
-399 398 0
-399 -323 0
400 398 -323 0
-400 -398 0
-400 323 0
401 400 399 0
-401 -400 0
-401 -399 0
402 334 317 0
-402 -334 0
-402 -317 0
403 165 334 0
-403 -165 0
-403 -334 0
404 165 317 0
-404 -165 0
-404 -317 0
405 404 403 0
-405 -404 0
-405 -403 0
406 402 -405 0
-406 -402 0
-406 405 0
407 -165 317 0
-407 165 0
-407 -317 0
408 165 -317 0
-408 -165 0
-408 317 0
409 408 407 0
-409 -408 0
-409 -407 0
410 334 -409 0
-410 -334 0
-410 409 0
411 -334 409 0
-411 334 0
-411 -409 0
412 411 410 0
-412 -411 0
-412 -410 0
413 328 345 0
-413 -328 0
-413 -345 0
414 176 345 0
-414 -176 0
-414 -345 0
415 176 328 0
-415 -176 0
-415 -328 0
416 414 415 0
-416 -414 0
-416 -415 0
417 413 -416 0
-417 -413 0
-417 416 0
418 -176 328 0
-418 176 0
-418 -328 0
419 176 -328 0
-419 -176 0
-419 328 0
420 418 419 0
-420 -418 0
-420 -419 0
421 -420 345 0
-421 420 0
-421 -345 0
422 420 -345 0
-422 -420 0
-422 345 0
423 421 422 0
-423 -421 0
-423 -422 0
424 339 356 0
-424 -339 0
-424 -356 0
425 187 356 0
-425 -187 0
-425 -356 0
426 187 339 0
-426 -187 0
-426 -339 0
427 425 426 0
-427 -425 0
-427 -426 0
428 424 -427 0
-428 -424 0
-428 427 0
429 -187 339 0
-429 187 0
-429 -339 0
430 187 -339 0
-430 -187 0
-430 339 0
431 430 429 0
-431 -430 0
-431 -429 0
432 -431 356 0
-432 431 0
-432 -356 0
433 431 -356 0
-433 -431 0
-433 356 0
434 432 433 0
-434 -432 0
-434 -433 0
435 367 350 0
-435 -367 0
-435 -350 0
436 198 367 0
-436 -198 0
-436 -367 0
437 198 350 0
-437 -198 0
-437 -350 0
438 437 436 0
-438 -437 0
-438 -436 0
439 435 -438 0
-439 -435 0
-439 438 0
440 -198 350 0
-440 198 0
-440 -350 0
441 198 -350 0
-441 -198 0
-441 350 0
442 441 440 0
-442 -441 0
-442 -440 0
443 367 -442 0
-443 -367 0
-443 442 0
444 -367 442 0
-444 367 0
-444 -442 0
445 444 443 0
-445 -444 0
-445 -443 0
446 371 361 0
-446 -371 0
-446 -361 0
447 209 371 0
-447 -209 0
-447 -371 0
448 209 361 0
-448 -209 0
-448 -361 0
449 448 447 0
-449 -448 0
-449 -447 0
450 -449 446 0
-450 449 0
-450 -446 0
451 -209 361 0
-451 209 0
-451 -361 0
452 209 -361 0
-452 -209 0
-452 361 0
453 452 451 0
-453 -452 0
-453 -451 0
454 371 -453 0
-454 -371 0
-454 453 0
455 -371 453 0
-455 371 0
-455 -453 0
456 455 454 0
-456 -455 0
-456 -454 0
457 375 -368 0
-457 -375 0
-457 368 0
458 -216 375 0
-458 216 0
-458 -375 0
459 -216 -368 0
-459 216 0
-459 368 0
460 458 459 0
-460 -458 0
-460 -459 0
461 457 -460 0
-461 -457 0
-461 460 0
462 216 -368 0
-462 -216 0
-462 368 0
463 -216 368 0
-463 216 0
-463 -368 0
464 463 462 0
-464 -463 0
-464 -462 0
465 375 -464 0
-465 -375 0
-465 464 0
466 -375 464 0
-466 375 0
-466 -464 0
467 466 465 0
-467 -466 0
-467 -465 0
468 -71 -372 0
-468 71 0
-468 372 0
469 -71 372 0
-469 71 0
-469 -372 0
470 71 -372 0
-470 -71 0
-470 372 0
471 470 469 0
-471 -470 0
-471 -469 0
472 390 376 0
-472 -390 0
-472 -376 0
473 -390 -376 0
-473 390 0
-473 376 0
474 472 473 0
-474 -472 0
-474 -473 0
475 390 -376 0
-475 -390 0
-475 376 0
476 401 -384 0
-476 -401 0
-476 384 0
477 -401 384 0
-477 401 0
-477 -384 0
478 476 477 0
-478 -476 0
-478 -477 0
479 -475 -478 0
-479 475 0
-479 478 0
480 475 478 0
-480 -475 0
-480 -478 0
481 479 480 0
-481 -479 0
-481 -480 0
482 401 -475 0
-482 -401 0
-482 475 0
483 384 -475 0
-483 -384 0
-483 475 0
484 401 384 0
-484 -401 0
-484 -384 0
485 484 483 0
-485 -484 0
-485 -483 0
486 -485 482 0
-486 485 0
-486 -482 0
487 412 -395 0
-487 -412 0
-487 395 0
488 -412 395 0
-488 412 0
-488 -395 0
489 487 488 0
-489 -487 0
-489 -488 0
490 486 -489 0
-490 -486 0
-490 489 0
491 -486 489 0
-491 486 0
-491 -489 0
492 491 490 0
-492 -491 0
-492 -490 0
493 412 486 0
-493 -412 0
-493 -486 0
494 486 395 0
-494 -486 0
-494 -395 0
495 412 395 0
-495 -412 0
-495 -395 0
496 495 494 0
-496 -495 0
-496 -494 0
497 493 -496 0
-497 -493 0
-497 496 0
498 423 -406 0
-498 -423 0
-498 406 0
499 -423 406 0
-499 423 0
-499 -406 0
500 498 499 0
-500 -498 0
-500 -499 0
501 497 -500 0
-501 -497 0
-501 500 0
502 -497 500 0
-502 497 0
-502 -500 0
503 502 501 0
-503 -502 0
-503 -501 0
504 497 423 0
-504 -497 0
-504 -423 0
505 497 406 0
-505 -497 0
-505 -406 0
506 423 406 0
-506 -423 0
-506 -406 0
507 505 506 0
-507 -505 0
-507 -506 0
508 -507 504 0
-508 507 0
-508 -504 0
509 434 -417 0
-509 -434 0
-509 417 0
510 -434 417 0
-510 434 0
-510 -417 0
511 509 510 0
-511 -509 0
-511 -510 0
512 508 -511 0
-512 -508 0
-512 511 0
513 -508 511 0
-513 508 0
-513 -511 0
514 512 513 0
-514 -512 0
-514 -513 0
515 508 434 0
-515 -508 0
-515 -434 0
516 508 417 0
-516 -508 0
-516 -417 0
517 434 417 0
-517 -434 0
-517 -417 0
518 517 516 0
-518 -517 0
-518 -516 0
519 -518 515 0
-519 518 0
-519 -515 0
520 445 -428 0
-520 -445 0
-520 428 0
521 -445 428 0
-521 445 0
-521 -428 0
522 520 521 0
-522 -520 0
-522 -521 0
523 -522 519 0
-523 522 0
-523 -519 0
524 522 -519 0
-524 -522 0
-524 519 0
525 524 523 0
-525 -524 0
-525 -523 0
526 519 445 0
-526 -519 0
-526 -445 0
527 519 428 0
-527 -519 0
-527 -428 0
528 445 428 0
-528 -445 0
-528 -428 0
529 528 527 0
-529 -528 0
-529 -527 0
530 -529 526 0
-530 529 0
-530 -526 0
531 -439 456 0
-531 439 0
-531 -456 0
532 439 -456 0
-532 -439 0
-532 456 0
533 532 531 0
-533 -532 0
-533 -531 0
534 530 -533 0
-534 -530 0
-534 533 0
535 -530 533 0
-535 530 0
-535 -533 0
536 534 535 0
-536 -534 0
-536 -535 0
537 530 456 0
-537 -530 0
-537 -456 0
538 530 439 0
-538 -530 0
-538 -439 0
539 439 456 0
-539 -439 0
-539 -456 0
540 539 538 0
-540 -539 0
-540 -538 0
541 -540 537 0
-541 540 0
-541 -537 0
542 467 -450 0
-542 -467 0
-542 450 0
543 -467 450 0
-543 467 0
-543 -450 0
544 542 543 0
-544 -542 0
-544 -543 0
545 541 -544 0
-545 -541 0
-545 544 0
546 -541 544 0
-546 541 0
-546 -544 0
547 545 546 0
-547 -545 0
-547 -546 0
548 467 541 0
-548 -467 0
-548 -541 0
549 541 450 0
-549 -541 0
-549 -450 0
550 467 450 0
-550 -467 0
-550 -450 0
551 550 549 0
-551 -550 0
-551 -549 0
552 548 -551 0
-552 -548 0
-552 551 0
553 471 -461 0
-553 -471 0
-553 461 0
554 -471 461 0
-554 471 0
-554 -461 0
555 553 554 0
-555 -553 0
-555 -554 0
556 552 -555 0
-556 -552 0
-556 555 0
557 -552 555 0
-557 552 0
-557 -555 0
558 557 556 0
-558 -557 0
-558 -556 0
559 471 552 0
-559 -471 0
-559 -552 0
560 461 552 0
-560 -461 0
-560 -552 0
561 471 461 0
-561 -471 0
-561 -461 0
562 560 561 0
-562 -560 0
-562 -561 0
563 -562 559 0
-563 562 0
-563 -559 0
564 468 563 0
-564 -468 0
-564 -563 0
565 -468 -563 0
-565 468 0
-565 563 0
566 564 565 0
-566 -564 0
-566 -565 0
567 -468 563 0
-567 468 0
-567 -563 0
-568 16 0
568 -16 0
-569 -75 0
569 75 0
-570 -223 0
570 223 0
-571 -304 0
571 304 0
-572 -379 0
572 379 0
-573 -474 0
573 474 0
-574 -481 0
574 481 0
-575 -492 0
575 492 0
-576 -503 0
576 503 0
-577 -514 0
577 514 0
-578 -525 0
578 525 0
-579 -536 0
579 536 0
-580 -547 0
580 547 0
-581 -558 0
581 558 0
-582 -566 0
582 566 0
-568 0
-569 0
570 0
571 0
-572 0
-573 0
-574 0
-575 0
-576 0
-577 0
-578 0
-579 0
580 0
581 0
-582 0
